96
0 46 34 26 76 65 36 40 49 20 
66 3 89 55 30 70 72 16 87 8 
69 38 44 92 7 33 61 53 19 78 
4 57 2 93 12 50 43 54 71 88 
18 37 90 83 23 67 24 82 63 31 
6 52 29 21 58 42 28 73 5 45 
60 56 74 15 48 86 41 91 11 85 
9 80 22 17 79 84 77 25 51 1 
27 47 62 10 94 75 13 64 81 95 
35 59 68 39 32 14 
